20
0  10 -1 -1 -1 -1 15 2 9 -1        0  10 1 2 3 6 15 2 9 -1
-1 0  8  13 24 51 5 -1 8 65        0  10 1 2 3 6 15 2 9 -1
-1 -1 0  14 -1 -1 4 58 99 -1       0  10 1 2 3 6 15 2 9 4
-1 9 -1 0  9  -1 -1 -1 56 9        0  10 1 2 3 6 15 2 9 -1
-1 1 -1 -1 0  17 -1 77 85 1        0  10 1 2 3 6 15 2 9 -1
-1 -1 5 -1 -1 0 2 3 4 5            0  10 1 2 3 6 15 2 9 -1
5 6 8 -1 5 7 -1 98 52 44           0  10 1 2 31 56 15 2 9 -1
-1 -1 -1 98  54 -1 -1 -1 98  54    0  10 1 2 31 56 15 2 9 -1
5 6 8 -1 5 7 -1 98 52 44           0  10 1 2 1 2 31 56 9 -1
5 6 8 -1 5 7 -1 98 52 44           0  10 1 2 31 56 15 2 9 56
0  10 -1 -1 -1 -1 15 2 9 -1        0  10 1 2 31 56 15 2 9 4
-1 0  8  13 24 51 5 -1 8 65        0  10 1 2 31 56 15 2 9 9
-1 -1 0  14 -1 -1 4 58 99 -1       0  10 56 15 2 9 15 2 9 -1
-1 9 -1 0  9  -1 -1 -1 56 9        0  10 56 15 2 9 15 2 9 -1
-1 1 -1 -1 0  17 -1 77 85 1        0  10 56 15 2 9 15 2 9 -1
-1 -1 5 -1 -1 0 2 3 4 5            0  10 56 15 2 9 15 2 9 5
5 6 8 -1 5 7 -1 98 52 44           0  10 56 15 2 9 15 2 9 -1
-1 -1 -1 98  54 -1 -1 -1 98  54    0  10 56 15 2 9 15 2 9 -1
5 6 8 -1 5 7 -1 98 52 44           0  10 56 15 2 9 15 2 9 -1
5 6 8 -1 5 7 -1 98 52 44           0  10 56 15 2 9 15 2 9 -1
